PEG {

write_once("In Init") {
  atom_style full
}

write_once("In Settings") {
  bond_coeff @bond:type1 200.000 1.5220
  bond_coeff @bond:type2 525.000 1.2600
  bond_coeff @bond:type3 222.500 1.5300
  bond_coeff @bond:type4 222.500 1.5300
  bond_coeff @bond:type5 309.000 1.1110
  bond_coeff @bond:type6 360.000 1.4150
  bond_coeff @bond:type7 284.500 1.1000
  bond_coeff @bond:type8 200.000 1.4900
  bond_coeff @bond:type9 403.000 1.0400
}

write_once("In Settings") {
  angle_coeff @angle:type1 33.00000 109.50000 30.00000 2.16300
  angle_coeff @angle:type2 63.00000 109.00000 0.00000 0.00000
  angle_coeff @angle:type3 40.00000 116.00000 50.00000 2.35300
  angle_coeff @angle:type4 26.50000 110.10000 22.53000 2.17900
  angle_coeff @angle:type5 45.00000 111.50000 0.00000 0.00000
  angle_coeff @angle:type6 26.50000 111.80000 22.53000 2.17900
  angle_coeff @angle:type7 67.70000 110.00000 0.00000 0.00000
  angle_coeff @angle:type8 95.00000 109.70000 0.00000 0.00000
  angle_coeff @angle:type9 26.50000 110.10000 22.53000 2.17900
  angle_coeff @angle:type10 75.70000 110.10000 0.00000 0.00000
  angle_coeff @angle:type11 30.00000 109.50000 20.00000 2.07400
  angle_coeff @angle:type12 35.50000 109.00000 5.40000 1.80200
  angle_coeff @angle:type13 35.50000 109.00000 5.40000 1.80200
  angle_coeff @angle:type14 44.00000 109.50000 0.00000 0.00000
  angle_coeff @angle:type15 45.00000 107.50000 35.00000 2.10100
  angle_coeff @angle:type16 100.00000 128.00000 70.00000 2.25870
  angle_coeff @angle:type17 45.90000 108.89000 0.00000 0.00000
}

write_once("In Settings") {
  dihedral_coeff @dihedral:type1 0.2000 3 0 1.00
  dihedral_coeff @dihedral:type2 0.5700 1 0 1.00
  dihedral_coeff @dihedral:type3 0.2900 2 0 0.00
  dihedral_coeff @dihedral:type4 0.4300 3 0 0.00
  dihedral_coeff @dihedral:type5 0.1000 3 0 1.00
  dihedral_coeff @dihedral:type6 0.5700 1 0 1.00
  dihedral_coeff @dihedral:type7 0.2900 2 0 0.00
  dihedral_coeff @dihedral:type8 0.4300 3 0 0.00
  dihedral_coeff @dihedral:type9 0.2200 3 0 1.00
  dihedral_coeff @dihedral:type10 0.1950 3 0 1.00
  dihedral_coeff @dihedral:type11 0.1950 3 0 1.00
  dihedral_coeff @dihedral:type12 0.2840 3 0 1.00
  dihedral_coeff @dihedral:type13 0.1000 3 0 1.00
  dihedral_coeff @dihedral:type14 0.0500 6 180 1.00
  dihedral_coeff @dihedral:type15 1.2800 2 180 1.00
  dihedral_coeff @dihedral:type16 0.1900 3 0 1.00
  dihedral_coeff @dihedral:type17 0.2500 1 180 1.00
  dihedral_coeff @dihedral:type18 1.2400 2 0 0.00
  dihedral_coeff @dihedral:type19 0.1900 3 0 1.00
  dihedral_coeff @dihedral:type20 0.7000 1 180 1.00
}

write_once("In Settings") {
  improper_coeff @improper:type1 96.000 0.00
}


  ### DATA sections


write_once("Data Masses") {
  @atom:HGA2 1.008
  @atom:HGP2 1.008
  @atom:CG2O3 12.011
  @atom:CG321 12.011
  @atom:CG324 12.011
  @atom:NG3P3 14.007
  @atom:OG2D2 15.999
  @atom:OG301 15.999
}

write("Data Atoms") {
  $atom:NG3P3 $mol:m1 @atom:NG3P3 -0.293000 -1.310306 48.703625 141.921463
  $atom:CG324 $mol:m1 @atom:CG324 0.127000 -1.925385 48.134575 140.671219
  $atom:CG321_1 $mol:m1 @atom:CG321 -0.007000 -1.274983 48.759026 139.421249
  $atom:OG301_1 $mol:m1 @atom:OG301 -0.342000 -1.882793 48.195843 138.266068
  $atom:CG321_2 $mol:m1 @atom:CG321 -0.009000 -1.314143 48.742771 137.073532
  $atom:CG321_3 $mol:m1 @atom:CG321 -0.009000 -1.976914 48.129116 135.831375
  $atom:OG301_2 $mol:m1 @atom:OG301 -0.342000 -1.389467 48.693176 134.663132
  $atom:CG321_4 $mol:m1 @atom:CG321 -0.009000 -1.980006 48.146931 133.484634
  $atom:CG321_5 $mol:m1 @atom:CG321 -0.009000 -1.332480 48.768242 132.238571
  $atom:OG301_3 $mol:m1 @atom:OG301 -0.342000 -1.929638 48.215828 131.068192
  $atom:CG321_6 $mol:m1 @atom:CG321 -0.009000 -1.349553 48.772903 129.892075
  $atom:CG321_7 $mol:m1 @atom:CG321 -0.009000 -2.011601 48.160004 128.649582
  $atom:OG301_4 $mol:m1 @atom:OG301 -0.342000 -1.430321 48.718464 127.475342
  $atom:CG321_8 $mol:m1 @atom:CG321 -0.009000 -2.025796 48.167339 126.303986
  $atom:CG321_9 $mol:m1 @atom:CG321 -0.009000 -1.379005 48.787991 125.057999
  $atom:OG301_5 $mol:m1 @atom:OG301 -0.342000 -1.975323 48.236134 123.887115
  $atom:CG321_10 $mol:m1 @atom:CG321 -0.009000 -1.394863 48.794064 122.712708
  $atom:CG321_11 $mol:m1 @atom:CG321 -0.009000 -2.055894 48.181629 121.472626
  $atom:OG301_6 $mol:m1 @atom:OG301 -0.342000 -1.475371 48.739422 120.296036
  $atom:CG321_12 $mol:m1 @atom:CG321 -0.009000 -2.070771 48.188435 119.125793
  $atom:CG321_13 $mol:m1 @atom:CG321 -0.009000 -1.424086 48.809071 117.880661
  $atom:OG301_7 $mol:m1 @atom:OG301 -0.342000 -2.020334 48.257454 116.708405
  $atom:CG321_14 $mol:m1 @atom:CG321 -0.009000 -1.439066 48.815845 115.533829
  $atom:CG321_15 $mol:m1 @atom:CG321 -0.009000 -2.100867 48.202736 114.293549
  $atom:OG301_8 $mol:m1 @atom:OG301 -0.342000 -1.519516 48.761185 113.117996
  $atom:CG321_16 $mol:m1 @atom:CG321 -0.009000 -2.115809 48.209393 111.947998
  $atom:CG321_17 $mol:m1 @atom:CG321 -0.009000 -1.469119 48.830296 110.701859
  $atom:OG301_9 $mol:m1 @atom:OG301 -0.342000 -2.066195 48.277817 109.531784
  $atom:CG321_18 $mol:m1 @atom:CG321 -0.009000 -1.484197 48.836891 108.356293
  $atom:CG321_19 $mol:m1 @atom:CG321 -0.009000 -2.145999 48.223972 107.115845
  $atom:OG301_10 $mol:m1 @atom:OG301 -0.342000 -1.564699 48.782219 105.940506
  $atom:CG321_20 $mol:m1 @atom:CG321 -0.009000 -2.160890 48.230583 104.770218
  $atom:CG321_21 $mol:m1 @atom:CG321 -0.009000 -1.514856 48.850712 103.524139
  $atom:OG301_11 $mol:m1 @atom:OG301 -0.342000 -2.110589 48.299538 102.353180
  $atom:CG321_22 $mol:m1 @atom:CG321 -0.009000 -1.529322 48.857914 101.178711
  $atom:CG321_23 $mol:m1 @atom:CG321 -0.009000 -2.190361 48.245705 99.937073
  $atom:OG301_12 $mol:m1 @atom:OG301 -0.342000 -1.609716 48.803459 98.762711
  $atom:CG321_24 $mol:m1 @atom:CG321 -0.009000 -2.205245 48.252178 97.591507
  $atom:CG321_25 $mol:m1 @atom:CG321 -0.009000 -1.559378 48.872337 96.346451
  $atom:OG301_13 $mol:m1 @atom:OG301 -0.342000 -2.155563 48.320496 95.175400
  $atom:CG321_26 $mol:m1 @atom:CG321 -0.009000 -1.574102 48.878986 94.000595
  $atom:CG321_27 $mol:m1 @atom:CG321 -0.009000 -2.236139 48.265949 92.759308
  $atom:OG301_14 $mol:m1 @atom:OG301 -0.342000 -1.654791 48.824520 91.584854
  $atom:CG321_28 $mol:m1 @atom:CG321 -0.009000 -2.250837 48.272736 90.414948
  $atom:CG321_29 $mol:m1 @atom:CG321 -0.009000 -1.604312 48.893566 89.167526
  $atom:OG301_15 $mol:m1 @atom:OG301 -0.342000 -2.200538 48.341686 87.997330
  $atom:CG321_30 $mol:m1 @atom:CG321 -0.009000 -1.618513 48.901001 86.823120
  $atom:CG321_31 $mol:m1 @atom:CG321 -0.009000 -2.281107 48.287136 85.581421
  $atom:OG301_16 $mol:m1 @atom:OG301 -0.342000 -1.699777 48.845631 84.407120
  $atom:CG321_32 $mol:m1 @atom:CG321 -0.009000 -2.295197 48.294468 83.235886
  $atom:CG321_33 $mol:m1 @atom:CG321 -0.009000 -1.649299 48.914642 81.990845
  $atom:OG301_17 $mol:m1 @atom:OG301 -0.342000 -2.245635 48.362705 80.819626
  $atom:CG321_34 $mol:m1 @atom:CG321 -0.009000 -1.663478 48.922100 79.645142
  $atom:CG321_35 $mol:m1 @atom:CG321 -0.009000 -2.326140 48.308319 78.403641
  $atom:OG301_18 $mol:m1 @atom:OG301 -0.342000 -1.744121 48.867306 77.229614
  $atom:CG321_36 $mol:m1 @atom:CG321 -0.009000 -2.340315 48.315731 76.058319
  $atom:CG321_37 $mol:m1 @atom:CG321 -0.009000 -1.694359 48.935654 74.812164
  $atom:OG301_19 $mol:m1 @atom:OG301 -0.342000 -2.290631 48.383938 73.641754
  $atom:CG321_38 $mol:m1 @atom:CG321 -0.009000 -1.709434 48.942348 72.467422
  $atom:CG321_39 $mol:m1 @atom:CG321 -0.009000 -2.370624 48.330193 71.227127
  $atom:OG301_20 $mol:m1 @atom:OG301 -0.342000 -1.788468 48.889122 70.053894
  $atom:CG321_40 $mol:m1 @atom:CG321 -0.009000 -2.385426 48.336628 68.883469
  $atom:CG321_41 $mol:m1 @atom:CG321 -0.009000 -1.738726 48.957561 67.639511
  $atom:OG301_21 $mol:m1 @atom:OG301 -0.342000 -2.337080 48.403625 66.471298
  $atom:CG321_42 $mol:m1 @atom:CG321 -0.009000 -1.756484 48.961433 65.295929
  $atom:CG321_43 $mol:m1 @atom:CG321 -0.009000 -2.415595 48.351120 64.055374
  $atom:OG301_22 $mol:m1 @atom:OG301 -0.342000 -1.823034 48.920078 62.892120
  $atom:CG321_44 $mol:m1 @atom:CG321 -0.009000 -2.408465 48.378437 61.710892
  $atom:CG321_45 $mol:m1 @atom:CG321 0.016000 -1.764033 48.997101 60.465561
  $atom:OG301_23 $mol:m1 @atom:OG301 -0.417000 -2.388431 48.418457 59.324715
  $atom:CG321_46 $mol:m1 @atom:CG321 0.043000 -1.846382 48.940475 58.093254
  $atom:CG2O3 $mol:m1 @atom:CG2O3 0.518000 -1.891584 48.813263 56.654533
  $atom:OG2D2_1 $mol:m1 @atom:OG2D2 -0.760000 -1.069877 49.509418 55.972687
  $atom:HGP2_1 $mol:m1 @atom:HGP2 0.328000 -1.593576 49.711250 142.048843
  $atom:HGP2_2 $mol:m1 @atom:HGP2 0.328000 -0.266785 48.643661 141.908463
  $atom:HGP2_3 $mol:m1 @atom:HGP2 0.328000 -1.684713 48.198044 142.755112
  $atom:HGA2_1 $mol:m1 @atom:HGA2 0.090000 -3.015810 48.339573 140.696487
  $atom:HGA2_2 $mol:m1 @atom:HGA2 0.090000 -1.774716 47.036579 140.675766
  $atom:HGA2_3 $mol:m1 @atom:HGA2 0.090000 -0.174946 48.549301 139.393112
  $atom:HGA2_4 $mol:m1 @atom:HGA2 0.090000 -1.444619 49.863979 139.415970
  $atom:HGA2_5 $mol:m1 @atom:HGA2 0.090000 -0.211458 48.549751 137.043777
  $atom:HGA2_6 $mol:m1 @atom:HGA2 0.090000 -1.495521 49.845329 137.044601
  $atom:HGA2_7 $mol:m1 @atom:HGA2 0.090000 -3.075517 48.339931 135.847519
  $atom:HGA2_8 $mol:m1 @atom:HGA2 0.090000 -1.824365 47.020432 135.834396
  $atom:HGA2_9 $mol:m1 @atom:HGA2 0.090000 -3.080251 48.335861 133.477280
  $atom:HGA2_10 $mol:m1 @atom:HGA2 0.090000 -1.813459 47.039005 133.469437
  $atom:HGA2_11 $mol:m1 @atom:HGA2 0.090000 -0.232402 48.554508 132.244553
  $atom:HGA2_12 $mol:m1 @atom:HGA2 0.090000 -1.491211 49.876625 132.260574
  $atom:HGA2_13 $mol:m1 @atom:HGA2 0.090000 -0.254679 48.558552 129.871658
  $atom:HGA2_14 $mol:m1 @atom:HGA2 0.090000 -1.486503 49.884140 129.874435
  $atom:HGA2_15 $mol:m1 @atom:HGA2 0.090000 -3.109440 48.382980 128.660721
  $atom:HGA2_16 $mol:m1 @atom:HGA2 0.090000 -1.874781 47.053059 128.648117
  $atom:HGA2_17 $mol:m1 @atom:HGA2 0.090000 -3.122269 48.389023 126.305771
  $atom:HGA2_18 $mol:m1 @atom:HGA2 0.090000 -1.886382 47.055931 126.283173
  $atom:HGA2_19 $mol:m1 @atom:HGA2 0.090000 -0.284707 48.546532 125.061340
  $atom:HGA2_20 $mol:m1 @atom:HGA2 0.090000 -1.489310 49.899136 125.075516
  $atom:HGA2_21 $mol:m1 @atom:HGA2 0.090000 -0.295738 48.571140 122.689728
  $atom:HGA2_22 $mol:m1 @atom:HGA2 0.090000 -1.528648 49.905170 122.696823
  $atom:HGA2_23 $mol:m1 @atom:HGA2 0.090000 -3.154562 48.396912 121.487366
  $atom:HGA2_24 $mol:m1 @atom:HGA2 0.090000 -1.902703 47.073494 121.473511
  $atom:HGA2_25 $mol:m1 @atom:HGA2 0.090000 -3.169242 48.397224 119.111374
  $atom:HGA2_26 $mol:m1 @atom:HGA2 0.090000 -1.901984 47.085308 119.103821
  $atom:HGA2_27 $mol:m1 @atom:HGA2 0.090000 -0.321733 48.616356 117.882950
  $atom:HGA2_28 $mol:m1 @atom:HGA2 0.090000 -1.605343 49.911724 117.885666
  $atom:HGA2_29 $mol:m1 @atom:HGA2 0.090000 -0.339535 48.605541 115.516922
  $atom:HGA2_30 $mol:m1 @atom:HGA2 0.090000 -1.606572 49.921585 115.529770
  $atom:HGA2_31 $mol:m1 @atom:HGA2 0.090000 -3.202039 48.386787 114.311356
  $atom:HGA2_32 $mol:m1 @atom:HGA2 0.090000 -1.929784 47.094753 114.310547
  $atom:HGA2_33 $mol:m1 @atom:HGA2 0.090000 -3.222882 48.365963 111.951828
  $atom:HGA2_34 $mol:m1 @atom:HGA2 0.090000 -1.903412 47.111683 111.945602
  $atom:HGA2_35 $mol:m1 @atom:HGA2 0.090000 -0.371410 48.630581 110.705017
  $atom:HGA2_36 $mol:m1 @atom:HGA2 0.090000 -1.624353 49.937798 110.711823
  $atom:HGA2_37 $mol:m1 @atom:HGA2 0.090000 -0.380541 48.643044 108.336182
  $atom:HGA2_38 $mol:m1 @atom:HGA2 0.090000 -1.656638 49.936371 108.358063
  $atom:HGA2_39 $mol:m1 @atom:HGA2 0.090000 -3.246118 48.431904 107.145874
  $atom:HGA2_40 $mol:m1 @atom:HGA2 0.090000 -1.992164 47.114922 107.121216
  $atom:HGA2_41 $mol:m1 @atom:HGA2 0.090000 -3.260689 48.417233 104.752670
  $atom:HGA2_42 $mol:m1 @atom:HGA2 0.090000 -1.986470 47.124657 104.758255
  $atom:HGA2_43 $mol:m1 @atom:HGA2 0.090000 -0.414744 48.636768 103.529358
  $atom:HGA2_44 $mol:m1 @atom:HGA2 0.090000 -1.659321 49.961273 103.535995
  $atom:HGA2_45 $mol:m1 @atom:HGA2 0.090000 -0.425462 48.668285 101.162582
  $atom:HGA2_46 $mol:m1 @atom:HGA2 0.090000 -1.711004 49.959881 101.182480
  $atom:HGA2_47 $mol:m1 @atom:HGA2 0.090000 -3.288432 48.457321 99.950211
  $atom:HGA2_48 $mol:m1 @atom:HGA2 0.090000 -2.027823 47.142166 99.944397
  $atom:HGA2_49 $mol:m1 @atom:HGA2 0.090000 -3.303880 48.471760 97.591431
  $atom:HGA2_50 $mol:m1 @atom:HGA2 0.090000 -2.065766 47.143993 97.577530
  $atom:HGA2_51 $mol:m1 @atom:HGA2 0.090000 -0.458614 48.669941 96.349731
  $atom:HGA2_52 $mol:m1 @atom:HGA2 0.090000 -1.727985 49.979488 96.364426
  $atom:HGA2_53 $mol:m1 @atom:HGA2 0.090000 -0.473121 48.674545 93.981812
  $atom:HGA2_54 $mol:m1 @atom:HGA2 0.090000 -1.741611 49.986301 94.000580
  $atom:HGA2_55 $mol:m1 @atom:HGA2 0.090000 -3.345860 48.413906 92.777191
  $atom:HGA2_56 $mol:m1 @atom:HGA2 0.090000 -2.011314 47.170010 92.778137
  $atom:HGA2_57 $mol:m1 @atom:HGA2 0.090000 -3.347055 48.511398 90.408585
  $atom:HGA2_58 $mol:m1 @atom:HGA2 0.090000 -2.142137 47.163097 90.403168
  $atom:HGA2_59 $mol:m1 @atom:HGA2 0.090000 -0.501359 48.700211 89.168930
  $atom:HGA2_60 $mol:m1 @atom:HGA2 0.090000 -1.778064 49.994373 89.190704
  $atom:HGA2_61 $mol:m1 @atom:HGA2 0.090000 -0.524256 48.657867 86.800079
  $atom:HGA2_62 $mol:m1 @atom:HGA2 0.090000 -1.724594 50.011974 86.817596
  $atom:HGA2_63 $mol:m1 @atom:HGA2 0.090000 -3.378218 48.484516 85.582443
  $atom:HGA2_64 $mol:m1 @atom:HGA2 0.090000 -2.113575 47.180054 85.593796
  $atom:HGA2_65 $mol:m1 @atom:HGA2 0.090000 -3.394043 48.508373 83.231689
  $atom:HGA2_66 $mol:m1 @atom:HGA2 0.090000 -2.138093 47.186356 83.216019
  $atom:HGA2_67 $mol:m1 @atom:HGA2 0.090000 -0.545469 48.726322 81.993225
  $atom:HGA2_68 $mol:m1 @atom:HGA2 0.090000 -1.840973 50.013889 82.019058
  $atom:HGA2_69 $mol:m1 @atom:HGA2 0.090000 -0.564011 48.716030 79.625336
  $atom:HGA2_70 $mol:m1 @atom:HGA2 0.090000 -1.828902 50.028282 79.633224
  $atom:HGA2_71 $mol:m1 @atom:HGA2 0.090000 -3.425288 48.503571 78.431702
  $atom:HGA2_72 $mol:m1 @atom:HGA2 0.090000 -2.163073 47.199886 78.412979
  $atom:HGA2_73 $mol:m1 @atom:HGA2 0.090000 -3.438702 48.524353 76.059006
  $atom:HGA2_74 $mol:m1 @atom:HGA2 0.090000 -2.185905 47.206139 76.048248
  $atom:HGA2_75 $mol:m1 @atom:HGA2 0.090000 -0.595818 48.713413 74.818161
  $atom:HGA2_76 $mol:m1 @atom:HGA2 0.090000 -1.841755 50.044853 74.832977
  $atom:HGA2_77 $mol:m1 @atom:HGA2 0.090000 -0.612091 48.732838 72.445663
  $atom:HGA2_78 $mol:m1 @atom:HGA2 0.090000 -1.851835 50.053833 72.453369
  $atom:HGA2_79 $mol:m1 @atom:HGA2 0.090000 -3.463125 48.579983 71.245941
  $atom:HGA2_80 $mol:m1 @atom:HGA2 0.090000 -2.273591 47.218601 71.226608
  $atom:HGA2_81 $mol:m1 @atom:HGA2 0.090000 -3.480500 48.556843 68.895462
  $atom:HGA2_82 $mol:m1 @atom:HGA2 0.090000 -2.238815 47.226631 68.866486
  $atom:HGA2_83 $mol:m1 @atom:HGA2 0.090000 -0.645996 48.704777 67.642776
  $atom:HGA2_84 $mol:m1 @atom:HGA2 0.090000 -1.828248 50.070049 67.650818
  $atom:HGA2_85 $mol:m1 @atom:HGA2 0.090000 -0.658076 48.740665 65.272949
  $atom:HGA2_86 $mol:m1 @atom:HGA2 0.090000 -1.894829 50.072620 65.283539
  $atom:HGA2_87 $mol:m1 @atom:HGA2 0.090000 -3.512627 48.570595 64.063217
  $atom:HGA2_88 $mol:m1 @atom:HGA2 0.090000 -2.263115 47.242199 64.048553
  $atom:HGA2_89 $mol:m1 @atom:HGA2 0.090000 -3.507099 48.580303 61.694374
  $atom:HGA2_90 $mol:m1 @atom:HGA2 0.090000 -2.235497 47.276829 61.675438
  $atom:HGA2_91 $mol:m1 @atom:HGA2 0.090000 -0.665016 48.789062 60.451736
  $atom:HGA2_92 $mol:m1 @atom:HGA2 0.090000 -1.930020 50.103012 60.461197
  $atom:HGA2_93 $mol:m1 @atom:HGA2 0.090000 -0.749912 48.728794 58.052238
  $atom:HGA2_94 $mol:m1 @atom:HGA2 0.090000 -1.997618 50.046364 58.064743
  $atom:OG2D2_2 $mol:m1 @atom:OG2D2 -0.760000 -2.787830 48.020145 56.209686
}

write("Data Bonds") {
  $bond:id1 @bond:type8 $atom:NG3P3 $atom:CG324
  $bond:id2 @bond:type9 $atom:NG3P3 $atom:HGP2_1
  $bond:id3 @bond:type9 $atom:NG3P3 $atom:HGP2_2
  $bond:id4 @bond:type9 $atom:NG3P3 $atom:HGP2_3
  $bond:id5 @bond:type4 $atom:CG324 $atom:CG321_1
  $bond:id6 @bond:type7 $atom:CG324 $atom:HGA2_1
  $bond:id7 @bond:type7 $atom:CG324 $atom:HGA2_2
  $bond:id8 @bond:type6 $atom:CG321_1 $atom:OG301_1
  $bond:id9 @bond:type5 $atom:CG321_1 $atom:HGA2_3
  $bond:id10 @bond:type5 $atom:CG321_1 $atom:HGA2_4
  $bond:id11 @bond:type6 $atom:OG301_1 $atom:CG321_2
  $bond:id12 @bond:type3 $atom:CG321_2 $atom:CG321_3
  $bond:id13 @bond:type5 $atom:CG321_2 $atom:HGA2_5
  $bond:id14 @bond:type5 $atom:CG321_2 $atom:HGA2_6
  $bond:id15 @bond:type6 $atom:CG321_3 $atom:OG301_2
  $bond:id16 @bond:type5 $atom:CG321_3 $atom:HGA2_7
  $bond:id17 @bond:type5 $atom:CG321_3 $atom:HGA2_8
  $bond:id18 @bond:type6 $atom:OG301_2 $atom:CG321_4
  $bond:id19 @bond:type3 $atom:CG321_4 $atom:CG321_5
  $bond:id20 @bond:type5 $atom:CG321_4 $atom:HGA2_9
  $bond:id21 @bond:type5 $atom:CG321_4 $atom:HGA2_10
  $bond:id22 @bond:type6 $atom:CG321_5 $atom:OG301_3
  $bond:id23 @bond:type5 $atom:CG321_5 $atom:HGA2_11
  $bond:id24 @bond:type5 $atom:CG321_5 $atom:HGA2_12
  $bond:id25 @bond:type6 $atom:OG301_3 $atom:CG321_6
  $bond:id26 @bond:type3 $atom:CG321_6 $atom:CG321_7
  $bond:id27 @bond:type5 $atom:CG321_6 $atom:HGA2_13
  $bond:id28 @bond:type5 $atom:CG321_6 $atom:HGA2_14
  $bond:id29 @bond:type6 $atom:CG321_7 $atom:OG301_4
  $bond:id30 @bond:type5 $atom:CG321_7 $atom:HGA2_15
  $bond:id31 @bond:type5 $atom:CG321_7 $atom:HGA2_16
  $bond:id32 @bond:type6 $atom:OG301_4 $atom:CG321_8
  $bond:id33 @bond:type3 $atom:CG321_8 $atom:CG321_9
  $bond:id34 @bond:type5 $atom:CG321_8 $atom:HGA2_17
  $bond:id35 @bond:type5 $atom:CG321_8 $atom:HGA2_18
  $bond:id36 @bond:type6 $atom:CG321_9 $atom:OG301_5
  $bond:id37 @bond:type5 $atom:CG321_9 $atom:HGA2_19
  $bond:id38 @bond:type5 $atom:CG321_9 $atom:HGA2_20
  $bond:id39 @bond:type6 $atom:OG301_5 $atom:CG321_10
  $bond:id40 @bond:type3 $atom:CG321_10 $atom:CG321_11
  $bond:id41 @bond:type5 $atom:CG321_10 $atom:HGA2_21
  $bond:id42 @bond:type5 $atom:CG321_10 $atom:HGA2_22
  $bond:id43 @bond:type6 $atom:CG321_11 $atom:OG301_6
  $bond:id44 @bond:type5 $atom:CG321_11 $atom:HGA2_23
  $bond:id45 @bond:type5 $atom:CG321_11 $atom:HGA2_24
  $bond:id46 @bond:type6 $atom:OG301_6 $atom:CG321_12
  $bond:id47 @bond:type3 $atom:CG321_12 $atom:CG321_13
  $bond:id48 @bond:type5 $atom:CG321_12 $atom:HGA2_25
  $bond:id49 @bond:type5 $atom:CG321_12 $atom:HGA2_26
  $bond:id50 @bond:type6 $atom:CG321_13 $atom:OG301_7
  $bond:id51 @bond:type5 $atom:CG321_13 $atom:HGA2_27
  $bond:id52 @bond:type5 $atom:CG321_13 $atom:HGA2_28
  $bond:id53 @bond:type6 $atom:OG301_7 $atom:CG321_14
  $bond:id54 @bond:type3 $atom:CG321_14 $atom:CG321_15
  $bond:id55 @bond:type5 $atom:CG321_14 $atom:HGA2_29
  $bond:id56 @bond:type5 $atom:CG321_14 $atom:HGA2_30
  $bond:id57 @bond:type6 $atom:CG321_15 $atom:OG301_8
  $bond:id58 @bond:type5 $atom:CG321_15 $atom:HGA2_31
  $bond:id59 @bond:type5 $atom:CG321_15 $atom:HGA2_32
  $bond:id60 @bond:type6 $atom:OG301_8 $atom:CG321_16
  $bond:id61 @bond:type3 $atom:CG321_16 $atom:CG321_17
  $bond:id62 @bond:type5 $atom:CG321_16 $atom:HGA2_33
  $bond:id63 @bond:type5 $atom:CG321_16 $atom:HGA2_34
  $bond:id64 @bond:type6 $atom:CG321_17 $atom:OG301_9
  $bond:id65 @bond:type5 $atom:CG321_17 $atom:HGA2_35
  $bond:id66 @bond:type5 $atom:CG321_17 $atom:HGA2_36
  $bond:id67 @bond:type6 $atom:OG301_9 $atom:CG321_18
  $bond:id68 @bond:type3 $atom:CG321_18 $atom:CG321_19
  $bond:id69 @bond:type5 $atom:CG321_18 $atom:HGA2_37
  $bond:id70 @bond:type5 $atom:CG321_18 $atom:HGA2_38
  $bond:id71 @bond:type6 $atom:CG321_19 $atom:OG301_10
  $bond:id72 @bond:type5 $atom:CG321_19 $atom:HGA2_39
  $bond:id73 @bond:type5 $atom:CG321_19 $atom:HGA2_40
  $bond:id74 @bond:type6 $atom:OG301_10 $atom:CG321_20
  $bond:id75 @bond:type3 $atom:CG321_20 $atom:CG321_21
  $bond:id76 @bond:type5 $atom:CG321_20 $atom:HGA2_41
  $bond:id77 @bond:type5 $atom:CG321_20 $atom:HGA2_42
  $bond:id78 @bond:type6 $atom:CG321_21 $atom:OG301_11
  $bond:id79 @bond:type5 $atom:CG321_21 $atom:HGA2_43
  $bond:id80 @bond:type5 $atom:CG321_21 $atom:HGA2_44
  $bond:id81 @bond:type6 $atom:OG301_11 $atom:CG321_22
  $bond:id82 @bond:type3 $atom:CG321_22 $atom:CG321_23
  $bond:id83 @bond:type5 $atom:CG321_22 $atom:HGA2_45
  $bond:id84 @bond:type5 $atom:CG321_22 $atom:HGA2_46
  $bond:id85 @bond:type6 $atom:CG321_23 $atom:OG301_12
  $bond:id86 @bond:type5 $atom:CG321_23 $atom:HGA2_47
  $bond:id87 @bond:type5 $atom:CG321_23 $atom:HGA2_48
  $bond:id88 @bond:type6 $atom:OG301_12 $atom:CG321_24
  $bond:id89 @bond:type3 $atom:CG321_24 $atom:CG321_25
  $bond:id90 @bond:type5 $atom:CG321_24 $atom:HGA2_49
  $bond:id91 @bond:type5 $atom:CG321_24 $atom:HGA2_50
  $bond:id92 @bond:type6 $atom:CG321_25 $atom:OG301_13
  $bond:id93 @bond:type5 $atom:CG321_25 $atom:HGA2_51
  $bond:id94 @bond:type5 $atom:CG321_25 $atom:HGA2_52
  $bond:id95 @bond:type6 $atom:OG301_13 $atom:CG321_26
  $bond:id96 @bond:type3 $atom:CG321_26 $atom:CG321_27
  $bond:id97 @bond:type5 $atom:CG321_26 $atom:HGA2_53
  $bond:id98 @bond:type5 $atom:CG321_26 $atom:HGA2_54
  $bond:id99 @bond:type6 $atom:CG321_27 $atom:OG301_14
  $bond:id100 @bond:type5 $atom:CG321_27 $atom:HGA2_55
  $bond:id101 @bond:type5 $atom:CG321_27 $atom:HGA2_56
  $bond:id102 @bond:type6 $atom:OG301_14 $atom:CG321_28
  $bond:id103 @bond:type3 $atom:CG321_28 $atom:CG321_29
  $bond:id104 @bond:type5 $atom:CG321_28 $atom:HGA2_57
  $bond:id105 @bond:type5 $atom:CG321_28 $atom:HGA2_58
  $bond:id106 @bond:type6 $atom:CG321_29 $atom:OG301_15
  $bond:id107 @bond:type5 $atom:CG321_29 $atom:HGA2_59
  $bond:id108 @bond:type5 $atom:CG321_29 $atom:HGA2_60
  $bond:id109 @bond:type6 $atom:OG301_15 $atom:CG321_30
  $bond:id110 @bond:type3 $atom:CG321_30 $atom:CG321_31
  $bond:id111 @bond:type5 $atom:CG321_30 $atom:HGA2_61
  $bond:id112 @bond:type5 $atom:CG321_30 $atom:HGA2_62
  $bond:id113 @bond:type6 $atom:CG321_31 $atom:OG301_16
  $bond:id114 @bond:type5 $atom:CG321_31 $atom:HGA2_63
  $bond:id115 @bond:type5 $atom:CG321_31 $atom:HGA2_64
  $bond:id116 @bond:type6 $atom:OG301_16 $atom:CG321_32
  $bond:id117 @bond:type3 $atom:CG321_32 $atom:CG321_33
  $bond:id118 @bond:type5 $atom:CG321_32 $atom:HGA2_65
  $bond:id119 @bond:type5 $atom:CG321_32 $atom:HGA2_66
  $bond:id120 @bond:type6 $atom:CG321_33 $atom:OG301_17
  $bond:id121 @bond:type5 $atom:CG321_33 $atom:HGA2_67
  $bond:id122 @bond:type5 $atom:CG321_33 $atom:HGA2_68
  $bond:id123 @bond:type6 $atom:OG301_17 $atom:CG321_34
  $bond:id124 @bond:type3 $atom:CG321_34 $atom:CG321_35
  $bond:id125 @bond:type5 $atom:CG321_34 $atom:HGA2_69
  $bond:id126 @bond:type5 $atom:CG321_34 $atom:HGA2_70
  $bond:id127 @bond:type6 $atom:CG321_35 $atom:OG301_18
  $bond:id128 @bond:type5 $atom:CG321_35 $atom:HGA2_71
  $bond:id129 @bond:type5 $atom:CG321_35 $atom:HGA2_72
  $bond:id130 @bond:type6 $atom:OG301_18 $atom:CG321_36
  $bond:id131 @bond:type3 $atom:CG321_36 $atom:CG321_37
  $bond:id132 @bond:type5 $atom:CG321_36 $atom:HGA2_73
  $bond:id133 @bond:type5 $atom:CG321_36 $atom:HGA2_74
  $bond:id134 @bond:type6 $atom:CG321_37 $atom:OG301_19
  $bond:id135 @bond:type5 $atom:CG321_37 $atom:HGA2_75
  $bond:id136 @bond:type5 $atom:CG321_37 $atom:HGA2_76
  $bond:id137 @bond:type6 $atom:OG301_19 $atom:CG321_38
  $bond:id138 @bond:type3 $atom:CG321_38 $atom:CG321_39
  $bond:id139 @bond:type5 $atom:CG321_38 $atom:HGA2_77
  $bond:id140 @bond:type5 $atom:CG321_38 $atom:HGA2_78
  $bond:id141 @bond:type6 $atom:CG321_39 $atom:OG301_20
  $bond:id142 @bond:type5 $atom:CG321_39 $atom:HGA2_79
  $bond:id143 @bond:type5 $atom:CG321_39 $atom:HGA2_80
  $bond:id144 @bond:type6 $atom:OG301_20 $atom:CG321_40
  $bond:id145 @bond:type3 $atom:CG321_40 $atom:CG321_41
  $bond:id146 @bond:type5 $atom:CG321_40 $atom:HGA2_81
  $bond:id147 @bond:type5 $atom:CG321_40 $atom:HGA2_82
  $bond:id148 @bond:type6 $atom:CG321_41 $atom:OG301_21
  $bond:id149 @bond:type5 $atom:CG321_41 $atom:HGA2_83
  $bond:id150 @bond:type5 $atom:CG321_41 $atom:HGA2_84
  $bond:id151 @bond:type6 $atom:OG301_21 $atom:CG321_42
  $bond:id152 @bond:type3 $atom:CG321_42 $atom:CG321_43
  $bond:id153 @bond:type5 $atom:CG321_42 $atom:HGA2_85
  $bond:id154 @bond:type5 $atom:CG321_42 $atom:HGA2_86
  $bond:id155 @bond:type6 $atom:CG321_43 $atom:OG301_22
  $bond:id156 @bond:type5 $atom:CG321_43 $atom:HGA2_87
  $bond:id157 @bond:type5 $atom:CG321_43 $atom:HGA2_88
  $bond:id158 @bond:type6 $atom:OG301_22 $atom:CG321_44
  $bond:id159 @bond:type3 $atom:CG321_44 $atom:CG321_45
  $bond:id160 @bond:type5 $atom:CG321_44 $atom:HGA2_89
  $bond:id161 @bond:type5 $atom:CG321_44 $atom:HGA2_90
  $bond:id162 @bond:type6 $atom:CG321_45 $atom:OG301_23
  $bond:id163 @bond:type5 $atom:CG321_45 $atom:HGA2_91
  $bond:id164 @bond:type5 $atom:CG321_45 $atom:HGA2_92
  $bond:id165 @bond:type6 $atom:OG301_23 $atom:CG321_46
  $bond:id166 @bond:type1 $atom:CG321_46 $atom:CG2O3
  $bond:id167 @bond:type5 $atom:CG321_46 $atom:HGA2_93
  $bond:id168 @bond:type5 $atom:CG321_46 $atom:HGA2_94
  $bond:id169 @bond:type2 $atom:CG2O3 $atom:OG2D2_1
  $bond:id170 @bond:type2 $atom:CG2O3 $atom:OG2D2_2
}

write("Data Angles") {
  $angle:id1 @angle:type11 $atom:CG324 $atom:NG3P3 $atom:HGP2_1
  $angle:id2 @angle:type11 $atom:CG324 $atom:NG3P3 $atom:HGP2_2
  $angle:id3 @angle:type11 $atom:CG324 $atom:NG3P3 $atom:HGP2_3
  $angle:id4 @angle:type14 $atom:HGP2_1 $atom:NG3P3 $atom:HGP2_2
  $angle:id5 @angle:type14 $atom:HGP2_1 $atom:NG3P3 $atom:HGP2_3
  $angle:id6 @angle:type14 $atom:HGP2_2 $atom:NG3P3 $atom:HGP2_3
  $angle:id7 @angle:type7 $atom:NG3P3 $atom:CG324 $atom:CG321_1
  $angle:id8 @angle:type15 $atom:NG3P3 $atom:CG324 $atom:HGA2_1
  $angle:id9 @angle:type15 $atom:NG3P3 $atom:CG324 $atom:HGA2_2
  $angle:id10 @angle:type6 $atom:CG321_1 $atom:CG324 $atom:HGA2_1
  $angle:id11 @angle:type6 $atom:CG321_1 $atom:CG324 $atom:HGA2_2
  $angle:id12 @angle:type13 $atom:HGA2_1 $atom:CG324 $atom:HGA2_2
  $angle:id13 @angle:type10 $atom:CG324 $atom:CG321_1 $atom:OG301_1
  $angle:id14 @angle:type9 $atom:CG324 $atom:CG321_1 $atom:HGA2_3
  $angle:id15 @angle:type9 $atom:CG324 $atom:CG321_1 $atom:HGA2_4
  $angle:id16 @angle:type17 $atom:OG301_1 $atom:CG321_1 $atom:HGA2_3
  $angle:id17 @angle:type17 $atom:OG301_1 $atom:CG321_1 $atom:HGA2_4
  $angle:id18 @angle:type12 $atom:HGA2_3 $atom:CG321_1 $atom:HGA2_4
  $angle:id19 @angle:type8 $atom:CG321_1 $atom:OG301_1 $atom:CG321_2
  $angle:id20 @angle:type5 $atom:OG301_1 $atom:CG321_2 $atom:CG321_3
  $angle:id21 @angle:type17 $atom:OG301_1 $atom:CG321_2 $atom:HGA2_5
  $angle:id22 @angle:type17 $atom:OG301_1 $atom:CG321_2 $atom:HGA2_6
  $angle:id23 @angle:type4 $atom:CG321_3 $atom:CG321_2 $atom:HGA2_5
  $angle:id24 @angle:type4 $atom:CG321_3 $atom:CG321_2 $atom:HGA2_6
  $angle:id25 @angle:type12 $atom:HGA2_5 $atom:CG321_2 $atom:HGA2_6
  $angle:id26 @angle:type5 $atom:CG321_2 $atom:CG321_3 $atom:OG301_2
  $angle:id27 @angle:type4 $atom:CG321_2 $atom:CG321_3 $atom:HGA2_7
  $angle:id28 @angle:type4 $atom:CG321_2 $atom:CG321_3 $atom:HGA2_8
  $angle:id29 @angle:type17 $atom:OG301_2 $atom:CG321_3 $atom:HGA2_7
  $angle:id30 @angle:type17 $atom:OG301_2 $atom:CG321_3 $atom:HGA2_8
  $angle:id31 @angle:type12 $atom:HGA2_7 $atom:CG321_3 $atom:HGA2_8
  $angle:id32 @angle:type8 $atom:CG321_3 $atom:OG301_2 $atom:CG321_4
  $angle:id33 @angle:type5 $atom:OG301_2 $atom:CG321_4 $atom:CG321_5
  $angle:id34 @angle:type17 $atom:OG301_2 $atom:CG321_4 $atom:HGA2_9
  $angle:id35 @angle:type17 $atom:OG301_2 $atom:CG321_4 $atom:HGA2_10
  $angle:id36 @angle:type4 $atom:CG321_5 $atom:CG321_4 $atom:HGA2_9
  $angle:id37 @angle:type4 $atom:CG321_5 $atom:CG321_4 $atom:HGA2_10
  $angle:id38 @angle:type12 $atom:HGA2_9 $atom:CG321_4 $atom:HGA2_10
  $angle:id39 @angle:type5 $atom:CG321_4 $atom:CG321_5 $atom:OG301_3
  $angle:id40 @angle:type4 $atom:CG321_4 $atom:CG321_5 $atom:HGA2_11
  $angle:id41 @angle:type4 $atom:CG321_4 $atom:CG321_5 $atom:HGA2_12
  $angle:id42 @angle:type17 $atom:OG301_3 $atom:CG321_5 $atom:HGA2_11
  $angle:id43 @angle:type17 $atom:OG301_3 $atom:CG321_5 $atom:HGA2_12
  $angle:id44 @angle:type12 $atom:HGA2_11 $atom:CG321_5 $atom:HGA2_12
  $angle:id45 @angle:type8 $atom:CG321_5 $atom:OG301_3 $atom:CG321_6
  $angle:id46 @angle:type5 $atom:OG301_3 $atom:CG321_6 $atom:CG321_7
  $angle:id47 @angle:type17 $atom:OG301_3 $atom:CG321_6 $atom:HGA2_13
  $angle:id48 @angle:type17 $atom:OG301_3 $atom:CG321_6 $atom:HGA2_14
  $angle:id49 @angle:type4 $atom:CG321_7 $atom:CG321_6 $atom:HGA2_13
  $angle:id50 @angle:type4 $atom:CG321_7 $atom:CG321_6 $atom:HGA2_14
  $angle:id51 @angle:type12 $atom:HGA2_13 $atom:CG321_6 $atom:HGA2_14
  $angle:id52 @angle:type5 $atom:CG321_6 $atom:CG321_7 $atom:OG301_4
  $angle:id53 @angle:type4 $atom:CG321_6 $atom:CG321_7 $atom:HGA2_15
  $angle:id54 @angle:type4 $atom:CG321_6 $atom:CG321_7 $atom:HGA2_16
  $angle:id55 @angle:type17 $atom:OG301_4 $atom:CG321_7 $atom:HGA2_15
  $angle:id56 @angle:type17 $atom:OG301_4 $atom:CG321_7 $atom:HGA2_16
  $angle:id57 @angle:type12 $atom:HGA2_15 $atom:CG321_7 $atom:HGA2_16
  $angle:id58 @angle:type8 $atom:CG321_7 $atom:OG301_4 $atom:CG321_8
  $angle:id59 @angle:type5 $atom:OG301_4 $atom:CG321_8 $atom:CG321_9
  $angle:id60 @angle:type17 $atom:OG301_4 $atom:CG321_8 $atom:HGA2_17
  $angle:id61 @angle:type17 $atom:OG301_4 $atom:CG321_8 $atom:HGA2_18
  $angle:id62 @angle:type4 $atom:CG321_9 $atom:CG321_8 $atom:HGA2_17
  $angle:id63 @angle:type4 $atom:CG321_9 $atom:CG321_8 $atom:HGA2_18
  $angle:id64 @angle:type12 $atom:HGA2_17 $atom:CG321_8 $atom:HGA2_18
  $angle:id65 @angle:type5 $atom:CG321_8 $atom:CG321_9 $atom:OG301_5
  $angle:id66 @angle:type4 $atom:CG321_8 $atom:CG321_9 $atom:HGA2_19
  $angle:id67 @angle:type4 $atom:CG321_8 $atom:CG321_9 $atom:HGA2_20
  $angle:id68 @angle:type17 $atom:OG301_5 $atom:CG321_9 $atom:HGA2_19
  $angle:id69 @angle:type17 $atom:OG301_5 $atom:CG321_9 $atom:HGA2_20
  $angle:id70 @angle:type12 $atom:HGA2_19 $atom:CG321_9 $atom:HGA2_20
  $angle:id71 @angle:type8 $atom:CG321_9 $atom:OG301_5 $atom:CG321_10
  $angle:id72 @angle:type5 $atom:OG301_5 $atom:CG321_10 $atom:CG321_11